c Generated map
c Size: 12 * 12, weights in range: 1 to 10, walls: True, with ratio 0.05
c dim 2 of 5
c
p sp 144 239
c graph contains 144 nodes and 239 arcs
c
a 1 13 3
a 13 1 3
a 1 2 7
a 2 1 7
a 2 14 6
a 14 2 6
a 2 3 7
a 3 2 7
a 3 15 4
a 15 3 4
a 3 4 3
a 4 3 3
a 4 16 8
a 16 4 8
a 4 5 2
a 5 4 2
a 5 17 8
a 17 5 8
a 5 6 4
a 6 5 4
a 6 18 1
a 18 6 1
a 6 7 3
a 7 6 3
a 7 19 2
a 19 7 2
a 7 8 9
a 8 7 9
a 8 20 6
a 20 8 6
a 8 9 9
a 9 8 9
a 9 21 4
a 21 9 4
a 9 10 6
a 10 9 6
a 10 22 9
a 22 10 9
a 10 11 9
a 11 10 9
a 11 23 7
a 23 11 7
a 11 12 5
a 12 11 5
a 12 24 5
a 24 12 5
a 13 25 9
a 25 13 9
a 13 14 7
a 14 13 7
a 14 26 10
a 26 14 10
a 14 15 8
a 15 14 8
a 15 16 5
a 16 15 5
a 16 28 1
a 28 16 1
a 16 17 4
a 17 16 4
a 17 29 10
a 29 17 10
a 17 18 4
a 18 17 4
a 18 30 6
a 30 18 6
a 18 19 1
a 19 18 1
a 19 31 7
a 31 19 7
a 19 20 6
a 20 19 6
a 20 32 3
a 32 20 3
a 20 21 2
a 21 20 2
a 21 33 9
a 33 21 9
a 21 22 2
a 22 21 2
a 22 34 4
a 34 22 4
a 22 23 1
a 23 22 1
a 23 35 10
a 35 23 10
a 23 24 4
a 24 23 4
a 24 36 7
a 36 24 7
a 25 26 1
a 26 25 1
a 26 38 2
a 38 26 2
a 28 40 5
a 40 28 5
a 28 29 6
a 29 28 6
a 29 41 1
a 41 29 1
a 29 30 8
a 30 29 8
a 30 42 2
a 42 30 2
a 30 31 5
a 31 30 5
a 31 43 1
a 43 31 1
a 31 32 5
a 32 31 5
a 32 44 5
a 44 32 5
a 32 33 7
a 33 32 7
a 33 34 8
a 34 33 8
a 34 46 10
a 46 34 10
a 34 35 8
a 35 34 8
a 35 47 9
a 47 35 9
a 35 36 6
a 36 35 6
a 36 48 3
a 48 36 3
a 38 50 9
a 50 38 9
a 38 39 3
a 39 38 3
a 39 51 1
a 51 39 1
a 39 40 2
a 40 39 2
a 40 52 7
a 52 40 7
a 40 41 9
a 41 40 9
a 41 53 2
a 53 41 2
a 41 42 5
a 42 41 5
a 42 54 3
a 54 42 3
a 42 43 7
a 43 42 7
a 43 55 8
a 55 43 8
a 43 44 5
a 44 43 5
a 44 56 7
a 56 44 7
a 46 58 5
a 58 46 5
a 46 47 10
a 47 46 10
a 47 59 9
a 59 47 9
a 47 48 3
a 48 47 3
a 48 60 7
a 60 48 7
a 49 61 1
a 61 49 1
a 49 50 10
a 50 49 10
a 50 62 6
a 62 50 6
a 50 51 3
a 51 50 3
a 51 63 5
a 63 51 5
a 51 52 5
a 52 51 5
a 52 64 8
a 64 52 8
a 52 53 5
a 53 52 5
a 53 65 8
a 65 53 8
a 53 54 8
a 54 53 8
a 54 66 10
a 66 54 10
a 54 55 2
a 55 54 2
a 55 67 5
a 67 55 5
a 55 56 5
a 56 55 5
a 56 68 7
a 68 56 7
a 56 57 2
a 57 56 2
a 57 69 8
a 69 57 8
a 57 58 4
a 58 57 4
a 58 70 9
a 70 58 9
a 58 59 7
a 59 58 7
a 59 60 7
a 60 59 7
a 60 72 5
a 72 60 5
a 61 73 9
a 73 61 9
a 61 62 4
a 62 61 4
a 62 74 6
a 74 62 6
a 62 63 9
a 63 62 9
a 63 75 4
a 75 63 4
a 63 64 7
a 64 63 7
a 64 76 8
a 76 64 8
a 64 65 2
a 65 64 2
a 65 77 8
a 77 65 8
a 65 66 4
a 66 65 4
a 66 78 2
a 78 66 2
a 66 67 8
a 67 66 8
a 67 79 9
a 79 67 9
a 67 68 8
a 68 67 8
a 68 80 4
a 80 68 4
a 68 69 2
a 69 68 2
a 69 81 10
a 81 69 10
a 69 70 1
a 70 69 1
a 70 82 8
a 82 70 8
a 72 84 2
a 84 72 2
a 73 85 2
a 85 73 2
a 73 74 6
a 74 73 6
a 74 86 3
a 86 74 3
a 74 75 6
a 75 74 6
a 75 87 4
a 87 75 4
a 75 76 6
a 76 75 6
a 76 88 5
a 88 76 5
a 76 77 9
a 77 76 9
a 77 89 1
a 89 77 1
a 77 78 6
a 78 77 6
a 78 90 4
a 90 78 4
a 78 79 6
a 79 78 6
a 79 91 1
a 91 79 1
a 79 80 1
a 80 79 1
a 80 92 6
a 92 80 6
a 80 81 8
a 81 80 8
a 81 93 2
a 93 81 2
a 81 82 1
a 82 81 1
a 82 83 5
a 83 82 5
a 83 84 1
a 84 83 1
a 84 96 5
a 96 84 5
a 85 86 10
a 86 85 10
a 86 98 7
a 98 86 7
a 86 87 7
a 87 86 7
a 87 99 4
a 99 87 4
a 87 88 9
a 88 87 9
a 88 100 7
a 100 88 7
a 88 89 4
a 89 88 4
a 89 101 4
a 101 89 4
a 89 90 4
a 90 89 4
a 90 102 1
a 102 90 1
a 90 91 6
a 91 90 6
a 91 103 10
a 103 91 10
a 91 92 6
a 92 91 6
a 92 104 2
a 104 92 2
a 92 93 9
a 93 92 9
a 93 105 4
a 105 93 4
a 96 108 9
a 108 96 9
a 98 110 10
a 110 98 10
a 98 99 8
a 99 98 8
a 99 111 8
a 111 99 8
a 99 100 7
a 100 99 7
a 100 112 9
a 112 100 9
a 100 101 3
a 101 100 3
a 101 113 1
a 113 101 1
a 101 102 1
a 102 101 1
a 102 114 7
a 114 102 7
a 102 103 1
a 103 102 1
a 103 115 5
a 115 103 5
a 103 104 10
a 104 103 10
a 104 116 7
a 116 104 7
a 104 105 2
a 105 104 2
a 105 117 4
a 117 105 4
a 105 106 9
a 106 105 9
a 106 118 1
a 118 106 1
a 106 107 5
a 107 106 5
a 107 119 10
a 119 107 10
a 107 108 10
a 108 107 10
a 108 120 10
a 120 108 10
a 109 121 7
a 121 109 7
a 109 110 10
a 110 109 10
a 110 122 7
a 122 110 7
a 110 111 3
a 111 110 3
a 111 123 5
a 123 111 5
a 111 112 8
a 112 111 8
a 112 124 8
a 124 112 8
a 112 113 2
a 113 112 2
a 113 125 7
a 125 113 7
a 113 114 2
a 114 113 2
a 114 126 2
a 126 114 2
a 114 115 10
a 115 114 10
a 115 127 1
a 127 115 1
a 115 116 1
a 116 115 1
a 116 128 6
a 128 116 6
a 116 117 9
a 117 116 9
a 117 129 7
a 129 117 7
a 117 118 5
a 118 117 5
a 118 130 4
a 130 118 4
a 118 119 9
a 119 118 9
a 119 131 7
a 131 119 7
a 119 120 10
a 120 119 10
a 120 132 10
a 132 120 10
a 121 133 2
a 133 121 2
a 121 122 3
a 122 121 3
a 122 134 7
a 134 122 7
a 122 123 4
a 123 122 4
a 123 135 7
a 135 123 7
a 123 124 9
a 124 123 9
a 124 136 8
a 136 124 8
a 124 125 10
a 125 124 10
a 125 137 7
a 137 125 7
a 125 126 1
a 126 125 1
a 126 138 2
a 138 126 2
a 126 127 1
a 127 126 1
a 127 139 4
a 139 127 4
a 127 128 8
a 128 127 8
a 128 140 10
a 140 128 10
a 128 129 7
a 129 128 7
a 129 141 2
a 141 129 2
a 129 130 6
a 130 129 6
a 130 142 1
a 142 130 1
a 130 131 1
a 131 130 1
a 131 143 6
a 143 131 6
a 131 132 6
a 132 131 6
a 132 144 10
a 144 132 10
a 133 134 3
a 134 133 3
a 134 135 1
a 135 134 1
a 135 136 5
a 136 135 5
a 136 137 6
a 137 136 6
a 137 138 4
a 138 137 4
a 138 139 6
a 139 138 6
a 139 140 10
a 140 139 10
a 140 141 5
a 141 140 5
a 141 142 7
a 142 141 7
a 142 143 4
a 143 142 4
a 143 144 5
a 144 143 5
